100
128
58
12
51
10
22
60
39
54
13
40
53
15
18
11
3
60
41
20
14
20
8
15
11
16
25
30
63
12
6
19
45
9
51
14
29
20
24
7
4
11
9
22
39
14
4
1
5
14
13
17
30
33
8
62
4
26
9
2
10
5
42
5
35
38
11
45
2
15
22
24
24
2
41
51
29
35
22
19
42
48
49
2
19
1
33
62
1
19
31
4
32
27
38
63
52
5
37
64
39
64